data/dat/R124.dat
/* Cplex Data generated on 2017-12-16 */

k = 14;

b = 7;

AtomicConstraints = {
	 <2, 3>,
	 <4, 5>,
	 <7, 3>,
	 <8, 10>,
	 <8, 12>,
	 <13, 10>,
	 <13, 12>,
	 <14, 10>,
	 <14, 12>,
	 }; 

SoftAtomicConstraints = {
	 <6, 1>,
	 <4, 2>,
	 <5, 3>,
	 <7, 6>,
	 <2, 7>,
	 <13, 8>,
	 <12, 10>,
	 <9, 11>,
	 <14, 13>,
	 <11, 14>,
	 }; 

DisjunctiveConstraints = {
	 <2, 4, 2, 7>,
	 <6, 7, 6, 1>,
	 <7, 2, 7, 6>,
	 <13, 14, 13, 8>,
	 }; 

DirectSuccessors = {
	 }; 

